p cnf 20 20
-16 -4 18 0
7 -4 12 0
-12 14 -11 0
-19 12 10 0
8 6 12 0
15 -6 -14 0
20 -19 -15 0
-9 4 14 0
11 9 -4 0
-18 -3 -13 0
7 9 -2 0
17 -19 -6 0
-7 16 -13 0
4 11 19 0
3 -7 -12 0
-15 18 -7 0
-9 -14 13 0
-13 -2 -17 0
15 -3 -18 0
1 12 -17 0
